start=1;

limit = 6;

n = 13;

m=[|-1,-1,13,-1,12,-1,2,-1,14,-1,-1,7,12,
|-1,-1,-1,-1,-1,-1,-1,1,1,-1,-1,0,13,
|-1,15,-1,1,6,-1,-1,11,4,-1,0,-1,18,
|0,-1,-1,-1,2,8,-1,5,8,10,-1,-1,12,
|-1,15,-1,10,-1,2,-1,-1,-1,-1,3,6,3,
|-1,-1,-1,9,-1,-1,-1,-1,-1,-1,-1,-1,-1,
|19,1,12,9,10,4,-1,-1,5,-1,17,4,14,
|-1,-1,13,-1,-1,19,13,-1,15,-1,14,6,-1,
|-1,-1,-1,8,-1,-1,10,-1,-1,1,13,-1,2,
|14,8,-1,3,13,17,-1,-1,10,-1,1,-1,5,
|-1,13,8,-1,15,-1,-1,-1,-1,12,-1,13,18,
|7,0,-1,-1,-1,10,15,1,7,-1,16,-1,-1,
|15,-1,-1,15,3,3,-1,-1,-1,16,-1,-1,-1,
|];